HUN,8,6,252
2,48,5,1,3,73,1,88,4,61,0,1
4,22,1,46,5,77,2,47,0,69,3,31
3,71,5,18,4,68,0,11,2,10,1,60
3,60,2,50,5,80,4,76,1,80,0,57
2,78,0,25,1,88,4,8,5,92,3,22
4,79,2,75,1,2,0,77,5,72,3,46
4,50,2,96,1,38,3,66,5,19,0,71
4,22,1,17,5,88,0,27,3,20,2,78
